2
150 3
64
20 1 4
21 1 5
22 1 3
23 1 1
25 1 1
26 1 2
27 1 1
28 1 2
29 1 1
30 1 1
31 1 2
32 1 1
33 1 3
36 1 1
37 1 3
38 1 2
39 1 2
40 1 5
41 1 1
42 1 1
43 1 1
44 1 1
45 1 2
46 1 2
48 1 1
50 1 1
52 1 3
54 1 2
55 1 1
56 1 1
57 1 1
58 1 2
59 1 1
60 1 1
61 1 1
62 1 4
63 1 1
64 1 1
65 1 2
66 1 5
67 1 1
68 1 1
70 1 1
72 1 2
74 1 5
75 1 2
76 1 2
77 1 1
79 1 1
80 1 2
81 1 1
82 1 2
83 1 3
86 1 2
87 1 1
89 1 2
90 1 3
91 1 2
92 1 3
93 1 1
94 1 2
95 1 1
98 1 1
100 1 2
